G2-2 neutral axillary set

no. of atomic species:3
He, Ne, Ar

no. of molecules:32
B2F4, CF2, C6H5CH3,  CH3F, CH2S, CH2SH, CH3OF, C6H5OH, C6H5NH2, B2H4, N2H2,
N2H3, HOF, Si2H2,
 Si2H4, Si2H5, C2 (1), C2O (3) CCO, NCO (2), OF (2), S2O, H2C=C=C (1A1)
, H2C=C=CH, CH2CHCH2, HCF (1) 1A', CH2CN, CH2NC, CHCO, CH2CHO, CH3CH2S,
 HNO, HO2 (2) HOO 2A"

notes:
NCO: guess=huckel
CH3CH2S: 6-31G* inital guess, scfcon=5
HCCO: nosymm





neutralIP: helium 

0 1
He

--link1--
%chk=Aux
%mem=4000000
#p B3LYP/6-31G*  scf=direct

neutralIP: neon 

0 1
Ne

--link1--
%chk=Aux
%mem=4000000
#p B3LYP/6-31G*  scf=direct

neutralIP: neon 

0 1
Ne

--link1--
%chk=Aux
%mem=4000000
#p B3LYP/6-31G*  scf=direct

neutralIP: argon 

0 1
Ar

--link1--
%chk=Aux
%mem=4000000
#p B3LYP/6-31G*  Opt scf=direct

neutralIP B2F4 D2d B3LYP/6-31G* geometry optimization 

0 1
b1
b2 b1 rb2
f1 b2 rf1 b1 af1
f2 b2 rf1 b1 af1 f1 180.0
f3 b1 rf1 b2 af1 f1 -90.0
f4 b1 rf1 b2 af1 f3 180.0

rb2=1.71637918
rf1=1.32474429
af1=121.59457203

--link1--
%chk=Aux
%mem=4000000
#p B3LYP/6-31G*  Opt scf=direct

neutralIP: neutralEA: CF2 B3LYP/6-31G* geometry optimization

0,1
C 0. 0. 0.6057221809
F 0. 1.0351875343 -0.2019073936
F 0. -1.0351875343 -0.2019073936

--link1--
%chk=Aux
%mem=4000000
#p B3LYP/6-31G*  Opt scf=direct

neutralIP C6H5-CH3 (Toluene. Cs) B3LYP/6-31G*
(Plane of ring is perpendicular to symmetry plane). 

0,1
C -0.0046256881 0.9139158089 0.
C -0.0074688664 0.1943033513 1.2023860616
C -0.0074688664 0.1943033513 -1.2023860616
C -0.0067994892 -1.2011902022 1.2054621822
C -0.0067994892 -1.2011902022 -1.2054621822
C -0.0057479552 -1.9050460514 0.
C 0.0274853602 2.4254038327 0.
H 1.0593105395 2.8019342169 0.
H -0.4675205794 2.8374653909 -0.8860066602
H -0.4675205794 2.8374653909 0.8860066602
H -0.0114132603 -1.7385906773 2.1504386632
H -0.0114132603 -1.7385906773 -2.1504386632
H -0.008414748 -2.9918147597 0.
H -0.0122390732 0.7345658925 2.1468644703
H -0.0122390732 0.7345658925 -2.1468644703

--link1--
%chk=Aux
%mem=4000000
#p B3LYP/6-31G*  Opt scf=direct

neutralIP: CH3F B3LYP/6-31G* geometry optimization

0,1
C 0. 0. -0.6302532284
F 0. 0. 0.7529102899
H 0. 1.0328028687 -0.998224413
H 0.8944335214 -0.5164014344 -0.998224413
H -0.8944335214 -0.5164014343 -0.998224413

--link1--
%chk=Aux
%mem=4000000
#p B3LYP/6-31G*  Opt scf=direct

neutralIP: neutralEA: CH2S B3LYP/6-31G* geometry optimization

0,1
C 0. 0. -1.030493546
S 0. 0. 0.5881387128
H 0. -0.9239096404 -1.6136290648
H 0. 0.9239096404 -1.6136290648

--link1--
%chk=Aux
%mem=4000000
#p B3LYP/6-31G*  Opt scf=direct

neutralIP: CH2SH C1 B3LYP/6-31G* geometry optimization

0,2
C,0,0.1429483967,1.1408721031,0.001446762
S,0,-0.0472321969,-0.5865161043,0.0711554133
H,0,-0.2255984561,-0.8072909957,-1.2492867124
H,0,-0.2277934375,1.7121843054,-0.840059886
H,0,0.3514166635,1.6341317409,0.9421794137

--link1--
%chk=Aux
%mem=4000000
#p B3LYP/6-31G*  Opt scf=direct

neutralIP: CH3OF B3LYP/6-31G* geometry optimization

0,1
C,0,0.3038811876,-1.0157896893,0.3473283557
O,0,0.3214385259,0.3987578471,0.3673959403
F,0,-0.5964437252,0.7778254429,-0.6817197865
H,0,1.0037277238,-1.284262524,1.1472348867
H,0,-0.6942497313,-1.4057455515,0.5766037703
H,0,0.6637202013,-1.4057455515,-0.6114982351

--link1--
%chk=Aux
%mem=4000000
#p B3LYP/6-31G*  Opt scf=direct

neutralIP: C6H5-OH (Phenol, Planar Cs) mp22(full)/6-31G* geometry optimization 

0,1
C,0,0.0018891286,0.941050242,0.
C,0,-1.2056364656,0.2353137321,0.
C,0,-1.1918777984,-1.1607610639,0.
C,0,0.0165618188,-1.8575070784,0.
C,0,1.2183234277,-1.1426503748,0.
C,0,1.2188533954,0.2501127758,0.
O,0,0.0564383555,2.3093063772,0.
H,0,-0.8481056344,2.6583189564,0.
H,0,-2.1511991415,0.7752753516,0.
H,0,-2.1346158797,-1.7015827738,0.
H,0,0.0235519934,-2.9434465216,0.
H,0,2.1662551614,-1.6743564903,0.
H,0,2.1439256177,0.8179910634,0.

--link1--
%chk=Aux
%mem=4000000
#p B3LYP/6-31G*  Opt scf=direct

neutralIP: C6H5-NH2 (Aniline, Cs) B3LYP/6-31G* geometry optimization 

0,1
C,0,-0.0013334211,0.9387853584,0.
C,0,0.0023536515,0.2213215516,1.2083162398
C,0,0.0023536515,0.2213215516,-1.2083162398
C,0,0.01131263,-1.1717066205,1.2025428789
C,0,0.01131263,-1.1717066205,-1.2025428789
C,0,0.0153483486,-1.881745947,0.
N,0,0.0496204499,2.3382448181,0.
H,0,-0.3242729676,2.7732426374,-0.8348021627
H,0,-0.3242729676,2.7732426374,0.8348021627
H,0,0.0119561918,-1.7055710807,2.1497200119
H,0,0.0119561918,-1.7055710807,-2.1497200119
H,0,0.0211602624,-2.9676537798,0.
H,0,0.0040225985,0.7634906492,2.1517173039
H,0,0.0040225985,0.7634906492,-2.1517173039

--link1--
%chk=Aux
%mem=4000000
#p B3LYP/6-31G*  Opt scf=direct

neutralIP: B2H4 B3LYP/6-31G* geometry optimization
(nonplanar doubly bridged structure C2v)

0,1
B,0,0.,0.7308086179,-0.1178724197
B,0,0.,-0.7308086179,-0.1178724197
H,0,-0.9013055375,0.,0.5802081582
H,0,0.9013055375,0.,0.5802081582
H,0,0.,1.9000349713,0.0091539401
H,0,0.,-1.9000349713,0.0091539401

--link1--
%chk=Aux
%mem=4000000
#p B3LYP/6-31G*  Opt scf=direct

neutralIP: N2H2 B3LYP/6-31G* geometry optimization

0,1
N,0,-0.0087890149,-0.6228971201,0.
N,0,0.0087890149,0.6228971201,0.
H,0,0.986181887,-0.9259032796,0.
H,0,-0.986181887,0.9259032796,0.

--link1--
%chk=Aux
%mem=4000000
#p B3LYP/6-31G*  Opt scf=direct

neutralIP: N2H3 B3LYP/6-31G* geometry optimization

0,2
N,0,0.0968366456,0.5983327571,-0.0172079698
N,0,-0.0147525507,-0.7494225317,0.1171375984
H,0,-0.1928036949,-1.0973364174,-0.8353115274
H,0,0.0550742722,1.0754710346,0.8769176994
H,0,-0.436859241,1.0794938053,-0.7411135726

--link1--
%chk=Aux
%mem=4000000
#p B3LYP/6-31G*  Opt scf=direct

neutralIP: HOF B3LYP/6-31G* geometry optimization

0,1
O,0,0.0596251074,0.7089485105,0.
F,0,0.0478040373,-0.7246034032,0.
H,0,-0.9072371942,0.8498425447,0.

--link1--
%chk=Aux
%mem=4000000
#p B3LYP/6-31G*  Opt scf=direct

neutralIP: Si2H2 B3LYP/6-31G* geometry optimization

0,1
Si,0,0.,-1.1114862985,-0.0527974623
Si,0,0.,1.1114862985,-0.0527974623
H,0,0.9937840607,0.,0.7391644727
H,0,-0.9937840607,0.,0.7391644727

--link1--
%chk=Aux
%mem=4000000
#p B3LYP/6-31G*  Opt scf=direct

neutralIP: Si2H4 c2h 1Ag B3LYP/6-31G* geometry optimization

0,1
Si,0,-0.1367771521,-1.0806118431,0.
Si,0,0.1367771521,1.0806118431,0.
H,0,0.2187019704,-1.8408193945,-1.2270486648
H,0,0.2187019704,-1.8408193945,1.2270486648
H,0,-0.2187019704,1.8408193945,-1.2270486648
H,0,-0.2187019704,1.8408193945,1.2270486648

--link1--
%chk=Aux
%mem=4000000
#p B3LYP/6-31G*  Opt scf=direct

neutralIP: Si2H5 B3LYP/6-31G* geometry optimization

0,2
Si,0,-0.0349229432,0.,-1.1244790913
Si,0,-0.0370904781,0.,1.2168849917
H,0,1.3413434576,0.,-1.7006813416
H,0,-0.7462824681,-1.2090388047,-1.6213038647
H,0,-0.7462824681,1.2090388047,-1.6213038647
H,0,0.5797046882,1.2150996784,1.8248032326
H,0,0.5797046882,-1.2150996784,1.8248032326

--link1--
%chk=Aux
%mem=4000000
#p B3LYP/6-31G*  Opt scf=direct

neutralEA: C2 B3LYP/6-31G* geometry optimization

0 1
C,0,0.,0.,-0.6279715905
C,0,0.,0.,0.6279715905

--link1--
%chk=Aux
%mem=4000000
#p B3LYP/6-31G*  Opt scf=direct

neutralEA: CCO (triplet linear) B3LYP/6-31G* geometry optimization

0 3
C,0,0.0594981922,0.,0.
C,0,1.4249519977,0.,0.
O,0,-1.1133376424,0.,0.

--link1--
%chk=Aux
%mem=4000000
#p B3LYP/6-31G*  Opt scf=direct

neutralEA: NCO linear B3LYP/6-31G* geometry optimization

0 2
C,0,0.0420910746,0.,0.
N,0,1.2719011431,0.,0.
O,0,-1.1444818062,0.,0.

--link1--
%chk=Aux
%mem=4000000
#p B3LYP/6-31G*  Opt scf=direct

neutralEA: OF B3LYP/6-31G* geometry optimization

0 2
O,0,0.,0.,-0.7170453904
F,0,0.,0.,0.6373736804

--link1--
%chk=Aux
%mem=4000000
#p B3LYP/6-31G*  Opt scf=direct

neutralIP: S2O Cs B3LYP/6-31G* geometry optimization 

0,1
S
S,1,SS
O,1,OS,2,OSS

SS=1.92326374
OS=1.48677633
OSS=117.80665622

--link1--
%chk=Aux
%mem=4000000
#p B3LYP/6-31G*  Opt scf=direct

neutralEA: H2CCC singlet B3LYP/6-31G* geometry optimization

0 1
C,0,0.,0.,0.2009222195
C,0,0.,0.,-1.1255971135
C,0,0.,0.,1.4918434769
H,0,0.,0.926771652,-1.7015057485
H,0,0.,-0.926771652,-1.7015057485

--link1--
%chk=Aux10c
%mem=4000000
#p B3LYP/6-31G*  Opt scf=direct

neutralEA: H2CCCH B3LYP/6-31G* geometry optimization

0,2
C,0,-0.1149696515,0.,0.0001234633
C,0,1.2544966929,0.,0.001104542
C,0,-1.3433983441,0.,-0.0009246803
H,0,1.8162745801,-0.9292173777,-0.0002466591
H,0,1.8162745801,0.9292173777,-0.0002466591
H,0,-2.4093213446,0.,-0.0013266316

--link1--
%chk=Aux10c
%mem=4000000
#p B3LYP/6-31G*  Opt scf=direct

neutralEA: C3H5 (PROP-2-ENYL) C2V 2A2 B3LYP/6-31G* geometry optimization

0,2
C,0,0.,0.,0.4435425181
H,0,0.,0.,1.5340724594
C,0,0.,-1.2297509599,-0.1960839258
C,0,0.,1.2297509599,-0.1960839258
H,0,0.,-2.16148002,0.3597290818
H,0,0.,2.16148002,0.3597290818
H,0,0.,-1.2984739429,-1.2808893108
H,0,0.,1.2984739429,-1.2808893108

--link1--
%chk=Aux10c
%mem=4000000
#p B3LYP/6-31G*  Opt scf=direct

neutralEA: HCF 1A' B3LYP/6-31G* geometry optimization

0 1
C,0,-0.0706815616,0.,-0.7260814455
F,0,-0.0681795107,0.,0.5904388096
H,0,1.0377049659,0.,-0.9574606132

--link1--
%chk=Aux10c
%mem=4000000
#p B3LYP/6-31G*  Opt scf=direct

neutralEA: h2ccn B3LYP/6-31G* geometry optimization

0,2
C,0,0.,0.,-1.1961876509
C,0,0.,0.,0.1864188864
N,0,0.,0.,1.3633786765
H,0,0.,0.9362748728,-1.7425190742
H,0,0.,-0.9362748728,-1.7425190742

--link1--
%chk=Aux10c
%mem=4000000
#p B3LYP/6-31G*  Opt scf=direct

neutralEA: H2CNC B3LYP/6-31G* geometry optimization

0,2
C,0,0.,0.,-1.1176426082
N,0,0.,0.,0.2175509589
C,0,0.,0.,1.4119162775
H,0,0.,0.9468377333,-1.6442493641
H,0,0.,-0.9468377333,-1.6442493641

--link1--
%chk=Aux10c
%mem=4000000
#p B3LYP/6-31G*  Opt scf=direct

neutralEA: HCCO (nonlinear, planar) B3LYP/6-31G* geometry optimization

0,2
C,0,-0.0000000238,-0.0479776437,-0.0151071337
C,0,0.0000001384,0.2321029728,1.2496466546
O,0,-0.0000000711,-0.0969455477,-1.1967106653
H,0,-0.000000119,-0.3291875932,2.166448197

--link1--
%chk=Aux10c
%mem=4000000
#p B3LYP/6-31G*  Opt scf=direct

neutralEA: H2CCHO B3LYP/6-31G* geometry optimization

0,2
C,0,0.2103254327,0.2897657176,-0.2364808511
C,0,0.2186164245,-1.1357246469,-0.2458028849
O,0,-0.4838313096,0.9562838248,0.5439990704
H,0,-0.4067213964,-1.6769000034,0.4573000077
H,0,0.8381772319,-1.6926378636,-0.9424103525
H,0,0.8655434983,0.7950208445,-0.973179803

--link1--
%chk=Aux10c
%mem=4000000
#p B3LYP/6-31G*  Opt scf=direct

neutralEA: CH3CH2S B3LYP/6-31G* geometry optimization

0 2
C,0,-1.6103651203,-0.4236986327,0.012002953
C,0,-0.4764994249,0.5991745888,0.0296683151
S,0,1.2057893443,-0.0957903883,-0.0238670657
H,0,-2.5825430158,0.0842050838,0.0465383762
H,0,-1.5750266081,-1.03385171,-0.8959387216
H,0,-1.5453743907,-1.0972673951,0.8722236518
H,0,-0.5489868237,1.2947138874,-0.8181186919
H,0,-0.5195113997,1.2319906111,0.927140828

--link1--
%chk=Aux10c
%mem=4000000
#p B3LYP/6-31G*  Opt scf=direct

neutralEA: HNO B3LYP/6-31G* geometry optimization

0,1
N,0,0.066595094,0.5822875629,0.
O,0,0.0601888044,-0.6251098306,0.
H,0,-0.9476760926,0.9248657042,0.

--link1--
%chk=Aux10c
%mem=4000000
#p B3LYP/6-31G*  Opt scf=direct

neutralEA: HOO 2A" B3LYP/6-31G* geometry optimization

0 2
O,0,-0.0557923833,0.,-0.6115109038
O,0,-0.0559655058,0.,0.7199926572
H,0,0.894063113,0.,-0.8678540269







