
#######################################################################
#  TEST DESCRIPTION
#######################################################################
cat > twophot_ccs_cs.info <<%EOF%
   twophot_ccs_cs
   --------------
   Molecule:       HF in C2
   Wave Function:  CCS
   Test Purpose:   twophoton transition moments
%EOF%

#######################################################################
#  INTEGRAL INPUT
#######################################################################
cat > twophot_ccs_cs.mol <<%EOF%
BASIS
6-31G**
Hydrogen flourid
small test basis
    2    1  Y         1.00D-15
        9.0   1    
F     0.0000000000000000  0.0000000000000000 1.76320000000000000      
        1.0   1
H     0.0000000000000000  0.0000000000000000 0.00000000000000000      
%EOF%

#######################################################################
#  DALTON INPUT
#######################################################################
cat > twophot_ccs_cs.dal <<%EOF%
**GENERAL
.RUNSIR
**INTEGRAL
.DIPLEN
**SIRIUS
.CC
*ORBITALS 
.NOSUPSYM
*SCF INPUT 
.THRESH
 1.0d-12
*CC INPUT 
.CCS
.RESTART
.NSYM
 2
.THRENR
 1.0d-8
.THRLEQ
 1.0d-8
*CCEXCI
.NCCEXCI
  0 3 
.THREXC
 1.0d-8
*CCLRSD
.DIPOLE
*CCSM
.SELSTA
2 3 0.0
.OPERATOR
YDIPLEN XDIPLEN YDIPLEN XDIPLEN
XDIPLEN YDIPLEN XDIPLEN YDIPLEN
*END OF
*END OF
%EOF%
#######################################################################

 

#######################################################################

#######################################################################
#  CHECK SCRIPT
#######################################################################
echo '#!/bin/ksh
log=$1

if [ `uname` = Linux ]; then
   GREP="egrep -a"
else
   GREP="egrep"
fi

# SCF, MP2 and CCSD energies:
CRIT1=`$GREP "Final    HF energy:" $log | $GREP "\-100.00891992" | wc -l`
TEST[1]=`expr $CRIT1`
CTRL[1]=1
ERROR[1]="ENERGIES NOT CORRECT"


# CCS twophoton transition moment
CRIT1=`$GREP "TSM:[ ]*(5\.|0\.5|0.05)238618[0-9]*" $log | wc -l`
CRIT2=`$GREP "ABLMOM[ ]*( |\-|0|\-0)\.364653[0-9]*[ ]* CDRMOM[ ]*( |\-|0|\-0)\.143659[0-9]*" $log | wc -l`
CRIT2=`$GREP "ABLMOM[ ]*( |\-|0|\-0)\.364653[0-9]*[ ]* CDRMOM[ ]*( |\-|0|\-0)\.143659[0-9]*" $log | wc -l`
CRIT3=`$GREP "CDLMOM[ ]*( |\-|0|\-0)\.364653[0-9]*[ ]* ABRMOM[ ]*( |\-|0|\-0)\.143659[0-9]*" $log | wc -l`
CRIT4=`$GREP " w moment product  \(ablmom\*cdlmom\):[ ]+(5\.|0\.5|0\.05)238618[0-9]*" $log | wc -l`
CRIT5=`$GREP "\-w moment product \(cdlmom\*abrmom\):[ ]+(5\.|0\.5|0\.05)238618[0-9]*" $log | wc -l`
TEST[2]=`expr $CRIT1 \+ $CRIT2 \+ $CRIT3 \+ $CRIT4 \+ $CRIT5`
CTRL[2]=10
ERROR[2]="CCS TWOPHOTON TRANSITION MOMENTS NOT CORRECT"

# CCS excitation energies
CRIT1=`$GREP "\^1A.  \|    3   \|     1\.455144.  \|      39\.596..  \|    319367\....  \| 100\.00" $log | wc -l`
TEST[3]=`expr $CRIT1`
CTRL[3]=1
ERROR[3]="CC EXCITATION ENERGIES NOT CORRECT"


PASSED=1
for i in 1 2 3 
do
   if [ ${TEST[i]} -ne ${CTRL[i]} ]; then
     echo ${ERROR[i]}
     PASSED=0
   fi
done

if [ $PASSED -eq 1 ]
then
  echo TEST ENDED PROPERLY
  exit 0
else
  echo THERE IS A PROBLEM
  exit 1
fi                
' > twophot_ccs_cs.check
chmod +x twophot_ccs_cs.check
#######################################################################
